50 250

46 49
36 46
32 23
79 17
44 20
48 43
22 3
29 3
91 34
99 15
42 42
10 3
54 15
94 15
67 5
75 32
63 50
42 19
25 4
53 49
65 46
72 39
59 47
51 39
70 1
32 29
77 15
80 47
84 12
83 49
66 33
93 46
27 18
10 40
57 22
54 29
14 49
90 2
19 16
30 34
100 9
23 8
19 4
17 24
16 1
86 35
27 35
28 34
38 27
72 12
